
Gurobi 11.0.3 (linux64) logging started Mon 18 Nov 2024 07:24:45 PM CST

Set parameter LogFile to value "/home/dlcole3/graph_abstraction/hierarchical_graphs/git_storage/CS1/HP_low_reserves/gurobi_logs/serial/logfile_ST3_8.log"

Gurobi 11.0.3 (linux64) logging started Mon 18 Nov 2024 07:28:41 PM CST

Set parameter LogFile to value "/home/dlcole3/graph_abstraction/hierarchical_graphs/git_storage/CS1/HP_low_reserves/gurobi_logs/serial/logfile_ST3_8.log"
Gurobi Optimizer version 11.0.3 build v11.0.3rc0 (linux64 - "Ubuntu 18.04.3 LTS")

CPU model: Intel(R) Xeon(R) CPU E5-2698 v4 @ 2.20GHz, instruction set [SSE2|AVX|AVX2]
Thread count: 40 physical cores, 80 logical processors, using up to 20 threads

Optimize a model with 29168 rows, 50688 columns and 136175 nonzeros
Model fingerprint: 0x6848346d
Variable types: 46944 continuous, 3744 integer (3744 binary)
Coefficient statistics:
  Matrix range     [6e-01, 2e+04]
  Objective range  [2e+00, 2e+04]
  Bounds range     [5e-02, 2e+05]
  RHS range        [2e-03, 7e+03]
Presolve removed 13728 rows and 38377 columns
Presolve time: 0.39s
Presolved: 15440 rows, 12311 columns, 64959 nonzeros
Variable types: 9343 continuous, 2968 integer (2968 binary)
Found heuristic solution: objective 194840.95115
Found heuristic solution: objective 189037.40965

Root relaxation: objective 7.022922e+04, 8596 iterations, 0.42 seconds (0.33 work units)

    Nodes    |    Current Node    |     Objective Bounds      |     Work
 Expl Unexpl |  Obj  Depth IntInf | Incumbent    BestBd   Gap | It/Node Time

     0     0 70229.2209    0   24 189037.410 70229.2209  62.8%     -    1s
H    0     0                    73950.508818 70229.2209  5.03%     -    1s
     0     0 70229.2209    0   24 73950.5088 70229.2209  5.03%     -    1s
     0     2 70229.2209    0   24 73950.5088 70229.2209  5.03%     -    2s
H   31    48                    73950.508708 70230.3302  5.03%  59.7    2s
H   36    48                    71827.358370 70242.9089  2.21%  56.8    2s
H   41    48                    71377.802150 70242.9089  1.59%  58.1    2s
H  220   125                    71356.228599 70244.2812  1.56%  27.9    3s
H  229   125                    71043.067452 70244.2812  1.12%  27.3    3s
H  425   181                    70994.459302 70263.5193  1.03%  20.7    3s
H  465   213                    70956.691001 70263.5193  0.98%  19.5    3s
H  745   359                    70956.690991 70263.5193  0.98%  15.9    4s
H  746   359                    70956.390762 70263.5193  0.98%  15.9    4s
   767   383     cutoff   25      70956.3908 70263.5193  0.98%  15.6    5s
H  812   383                    70949.583140 70263.5193  0.97%  15.1    5s
H 1009   457                    70913.012069 70263.5193  0.92%  14.0    6s
H 1561   625                    70897.196795 70263.5193  0.89%  11.5    6s
H 1589   625                    70869.779266 70263.5193  0.86%  11.4    6s
H 1696   592                    70869.770947 70561.6885  0.43%  11.1    6s
H 1779   618                    70869.739263 70735.6673  0.19%  10.9    6s

Explored 1867 nodes (28531 simplex iterations) in 6.75 seconds (4.59 work units)
Thread count was 20 (of 80 available processors)

Solution count 10: 70869.7 70869.8 70897.2 ... 71377.8

Optimal solution found (tolerance 3.00e-03)
Best objective 7.086973926346e+04, best bound 7.073566731551e+04, gap 0.1892%

User-callback calls 6639, time in user-callback 0.01 sec
